JulietBench/Juliet_Based_Patch_Bench/FFmpeg/CWE-189-Numeric-Errors/CVE_2011_4352_8b94df0f2047e9728cb872adc9e64557b7a5152f/solvervp3_dequant_Snippet_patch2.smt2
; benchmark generated from python API
(set-info :status unknown)
(declare-fun rsi () (_ BitVec 64))
(declare-fun R () (_ BitVec 32))
(declare-fun rdi () (_ BitVec 64))
(assert
 (let ((?x8 ((_ extract 31 0) rsi)))
 (let ((?x18 ((_ extract 31 31) rsi)))
 (let ((?x21 (concat (concat (concat (concat (concat ?x18 ?x18) ?x18) ?x18) ?x18) ?x18)))
 (let ((?x26 (concat (concat (concat (concat (concat ?x21 ?x18) ?x18) ?x18) ?x18) ?x18)))
 (let ((?x34 (concat (concat (concat (concat (concat ?x26 ?x18) ?x18) ?x18) ?x18) ?x18)))
 (let ((?x42 (concat (concat (concat (concat (concat ?x34 ?x18) ?x18) ?x18) ?x18) ?x18)))
 (let ((?x47 (concat (concat (concat (concat (concat ?x42 ?x18) ?x18) ?x18) ?x18) ?x18)))
 (let ((?x52 (concat (concat (concat (concat (concat ?x47 ?x18) ?x18) ?x18) ?x18) ?x18)))
 (let ((?x54 (concat (concat ?x52 ?x18) ?x8)))
 (let ((?x55 (bvashr ?x54 (_ bv2 64))))
 (let ((?x56 ((_ extract 6 0) ?x55)))
 (let ((?x57 (concat (_ bv0 25) ?x56)))
 (let ((?x85 (bvadd (_ bv1 32) ?x57)))
 (let (($x101 (and (distinct R ?x85) true)))
 (let ((?x76 (bvadd (bvadd (_ bv1 32) ((_ extract 31 0) rdi)) ?x57)))
 (let (($x92 (and (distinct R ?x76) true)))
 (let (($x95 (and $x92 $x101)))
 (let (($x97 (= R ?x85)))
 (let (($x64 (= R ?x76)))
 (let (($x81 (and $x64 $x97)))
 (let (($x71 (or $x81 $x95)))
 (not $x71)))))))))))))))))))))))
(check-sat)
